SCIP Status        : solving was interrupted [time limit reached]
Total Time         :    3600.05
  solving          :    3600.05
  presolving       :       0.00 (included in solving)
  reading          :       0.00
  copying          :       0.12 (47 #copies) (minimal 0.00, maximal 0.00, average 0.00)
Original Problem   :
  Problem name     : ex8_4_6
  Variables        : 15 (0 binary, 0 integer, 0 implicit integer, 15 continuous)
  Constraints      : 9 initial, 9 maximal
  Objective        : minimize, 1 non-zeros (abs.min = 1, abs.max = 1)
Presolved Problem  :
  Problem name     : t_ex8_4_6
  Variables        : 88 (0 binary, 0 integer, 0 implicit integer, 88 continuous)
  Constraints      : 12 initial, 12 maximal
  Objective        : minimize, 1 non-zeros (abs.min = 1, abs.max = 1)
  Nonzeros         : 71 constraint, 0 clique table
Presolvers         :   ExecTime  SetupTime  Calls  FixedVars   AggrVars   ChgTypes  ChgBounds   AddHoles    DelCons    AddCons   ChgSides   ChgCoefs
  boundshift       :       0.00       0.00      0          0          0          0          0          0          0          0          0          0
  convertinttobin  :       0.00       0.00      0          0          0          0          0          0          0          0          0          0
  domcol           :       0.00       0.00      2          0          0          0          0          0          0          0          0          0
  dualagg          :       0.00       0.00      0          0          0          0          0          0          0          0          0          0
  dualcomp         :       0.00       0.00      2          0          0          0          0          0          0          0          0          0
  dualinfer        :       0.00       0.00      0          0          0          0          0          0          0          0          0          0
  dualsparsify     :       0.00       0.00      2          0          0          0          0          0          0          0          0          0
  gateextraction   :       0.00       0.00      0          0          0          0          0          0          0          0          0          0
  implics          :       0.00       0.00      2          0          0          0          0          0          0          0          0          0
  inttobinary      :       0.00       0.00      0          0          0          0          0          0          0          0          0          0
  qpkktref         :       0.00       0.00      0          0          0          0          0          0          0          0          0          0
  redvub           :       0.00       0.00      0          0          0          0          0          0          0          0          0          0
  sparsify         :       0.00       0.00      1          0          0          0          0          0          0          0          0          0
  stuffing         :       0.00       0.00      0          0          0          0          0          0          0          0          0          0
  trivial          :       0.00       0.00      3          0          0          0          0          0          0          0          0          0
  tworowbnd        :       0.00       0.00      0          0          0          0          0          0          0          0          0          0
  dualfix          :       0.00       0.00      3          0          0          0          0          0          0          0          0          0
  genvbounds       :       0.00       0.00      0          0          0          0          0          0          0          0          0          0
  probing          :       0.00       0.00      0          0          0          0          0          0          0          0          0          0
  pseudoobj        :       0.00       0.00      0          0          0          0          0          0          0          0          0          0
  symmetry         :       0.00       0.00      1          0          0          0          0          0          0          3          0          0
  vbounds          :       0.00       0.00      0          0          0          0          0          0          0          0          0          0
  linear           :       0.00       0.00      2          0          0          0          0          0          0          0          0          0
  nonlinear        :       0.00       0.00      7          0          0          0          1          0          0         -3          0          0
  benders          :       0.00       0.00      0          0          0          0          0          0          0          0          0          0
  components       :       0.00       0.00      1          0          0          0          0          0          0          0          0          0
  root node        :          -          -      -          0          -          -         46          -          -          -          -          -
Constraints        :     Number  MaxNumber  #Separate #Propagate    #EnfoLP    #EnfoRelax  #EnfoPS    #Check   #ResProp    Cutoffs    DomReds       Cuts    Applied      Conss   Children
  benderslp        :          0          0          0          0    5082225          0       1491     520656          0          0          0          0          0          0          0
  integral         :          0          0          0          0    5082225          0          0     520656          0          0          0          0          0          0          0
  linear           :          3          3         30    4393019          0          0        848     520651          0          0        976          5          3          0          0
  nonlinear        :          9          9    6834566    4393028    5082225          0       1491     520650          0       3017    5125457    9458215    6782561          0    3782060
  benders          :          0          0          0          0          0          0       1491        229          0          0          0          0          0          0          0
  countsols        :          0          0          0          0          0          0       1491        229          0          0          0          0          0          0          0
  components       :          0          0          0          0          0          0          0          0          0          0          0          0          0          0          0
Constraint Timings :  TotalTime  SetupTime   Separate  Propagate     EnfoLP     EnfoPS     EnfoRelax   Check    ResProp    SB-Prop
  benderslp        :       0.92       0.00       0.00       0.00       0.89       0.00       0.00       0.03       0.00       0.00
  integral         :       0.91       0.00       0.00       0.00       0.87       0.00       0.00       0.04       0.00       0.00
  linear           :       0.82       0.00       0.00       0.72       0.00       0.00       0.00       0.10       0.00       0.00
  nonlinear        :     935.39       0.00     441.17      74.89     416.06       0.02       0.00       3.24       0.00       0.00
  benders          :       0.00       0.00       0.00       0.00       0.00       0.00       0.00       0.00       0.00       0.00
  countsols        :       0.00       0.00       0.00       0.00       0.00       0.00       0.00       0.00       0.00       0.00
  components       :       0.48       0.00       0.00       0.48       0.00       0.00       0.00       0.00       0.00       0.00
Propagators        : #Propagate   #ResProp    Cutoffs    DomReds
  dualfix          :          5          0          0          0
  genvbounds       :      17239          0          0          0
  nlobbt           :          0          0          0          0
  obbt             :         10          0          0          1
  probing          :          0          0          0          0
  pseudoobj        :    9475560          0          0         10
  redcost          :          0          0          0          0
  rootredcost      :         10          0          0          0
  symmetry         :          0          0          0          0
  vbounds          :          0          0          0          0
Propagator Timings :  TotalTime  SetupTime   Presolve  Propagate    ResProp    SB-Prop
  dualfix          :       0.00       0.00       0.00       0.00       0.00       0.00
  genvbounds       :       4.23       0.00       0.00       4.23       0.00       0.00
  nlobbt           :       0.00       0.00       0.00       0.00       0.00       0.00
  obbt             :       0.09       0.00       0.00       0.09       0.00       0.00
  probing          :       0.00       0.00       0.00       0.00       0.00       0.00
  pseudoobj        :       5.04       0.00       0.00       5.04       0.00       0.00
  redcost          :       3.58       0.00       0.00       3.58       0.00       0.00
  rootredcost      :       1.75       0.00       0.00       1.75       0.00       0.00
  symmetry         :       0.55       0.00       0.00       0.55       0.00       0.00
  vbounds          :       1.77       0.00       0.00       1.77       0.00       0.00
Orbital fixing     :
  vars fixed to 0  :          0
  vars fixed to 1  :          0
Conflict Analysis  :       Time      Calls    Success    DomReds  Conflicts   Literals    Reconvs ReconvLits   Dualrays   Nonzeros   LP Iters   (pool size: [--,--])
  propagation      :       0.00          0          0          -          0        0.0          0        0.0          -          -          -
  infeasible LP    :       0.00          0          0          -          0        0.0          0        0.0          0        0.0          0
  bound exceed. LP :       0.00          0          0          -          0        0.0          0        0.0          0        0.0          0
  strong branching :       0.00          0          0          -          0        0.0          0        0.0          -          -          0
  pseudo solution  :       0.00          0          0          -          0        0.0          0        0.0          -          -          -
  applied globally :       0.00          -          -          0          0        0.0          -          -          0          -          -
  applied locally  :          -          -          -          0          0        0.0          -          -          0          -          -
Separators         :   ExecTime  SetupTime      Calls  RootCalls    Cutoffs    DomReds  FoundCuts ViaPoolAdd  DirectAdd    Applied ViaPoolApp  DirectApp      Conss
  cut pool         :       0.00          -          0          0          -          -          0          0          -          -          -          -          -    (maximal pool size:          0)
  aggregation      :       0.00       0.00          0          0          0          0          0          0          0          0          0          0          0
  > cmir           :          -          -          -          -          -          -          -          0          0          0          0          0          -
  > flowcover      :          -          -          -          -          -          -          -          0          0          0          0          0          -
  > knapsackcover  :          -          -          -          -          -          -          -          0          0          0          0          0          -
  cgmip            :       0.00       0.00          0          0          0          0          0          0          0          0          0          0          0
  clique           :       0.00       0.00          0          0          0          0          0          0          0          0          0          0          0
  closecuts        :       0.00       0.00          0          0          0          0          0          0          0          0          0          0          0
  convexproj       :       0.00       0.00          0          0          0          0          0          0          0          0          0          0          0
  disjunctive      :       0.00       0.00          0          0          0          0          0          0          0          0          0          0          0
  eccuts           :       0.00       0.00          0          0          0          0          0          0          0          0          0          0          0
  gauge            :       0.00       0.00          0          0          0          0          0          0          0          0          0          0          0
  gomory           :       0.01       0.00          0          0          0          0          0          0          0          0          0          0          0
  > gomorymi       :          -          -          -          -          -          -          -          0          0          0          0          0          -
  > strongcg       :          -          -          -          -          -          -          -          0          0          0          0          0          -
  impliedbounds    :       0.00       0.00          0          0          0          0          0          0          0          0          0          0          0
  interminor       :       0.00       0.00          0          0          0          0          0          0          0          0          0          0          0
  intobj           :       0.00       0.00          0          0          0          0          0          0          0          0          0          0          0
  mcf              :       0.00       0.00          0          0          0          0          0          0          0          0          0          0          0
  minor            :       0.00       0.00          0          0          0          0          0          0          0          0          0          0          0
  mixing           :       0.00       0.00      11021         30          0          0          0          0          0          0          0          0          0
  oddcycle         :       0.00       0.00          0          0          0          0          0          0          0          0          0          0          0
  rapidlearning    :       0.03       0.00          0          0          0          0          0          0          0          0          0          0          0
  rlt              :       0.00       0.00          1          1          0          0          0          0          0          0          0          0          0
  zerohalf         :       0.00       0.00          0          0          0          0          0          0          0          0          0          0          0
Cutselectors       :   ExecTime  SetupTime      Calls  RootCalls   Selected     Forced   Filtered  RootSelec   RootForc   RootFilt 
  hybrid           :       4.16       0.00    4567428         29    5081183       1062     463138        189          0         94
Pricers            :   ExecTime  SetupTime      Calls       Vars
  problem variables:       0.00          -          0          0
Branching Rules    :   ExecTime  SetupTime   BranchLP  BranchExt   BranchPS    Cutoffs    DomReds       Cuts      Conss   Children
  allfullstrong    :       0.00       0.00          0          0          0          0          0          0          0          0
  cloud            :       0.00       0.00          0          0          0          0          0          0          0          0
  distribution     :       0.00       0.00          0          0          0          0          0          0          0          0
  fullstrong       :       0.00       0.00          0          0          0          0          0          0          0          0
  inference        :       0.00       0.00          0          0          0          0          0          0          0          0
  leastinf         :       0.00       0.00          0          0          0          0          0          0          0          0
  lookahead        :       0.00       0.00          0          0          0          0          0          0          0          0
  mostinf          :       0.00       0.00          0          0          0          0          0          0          0          0
  multaggr         :       0.00       0.00          0          0          0          0          0          0          0          0
  nodereopt        :       0.00       0.00          0          0          0          0          0          0          0          0
  pscost           :       0.02       0.00          0       1491          0          0          0          0          0       2982
  random           :       0.00       0.00          0          0          0          0          0          0          0          0
  relpscost        :       0.00       0.00          0          0          0          0          0          0          0          0
  vanillafullstrong:       0.00       0.00          0          0          0          0          0          0          0          0
Primal Heuristics  :   ExecTime  SetupTime      Calls      Found       Best
  LP solutions     :       0.00          -          -          0          0
  relax solutions  :       0.00          -          -          0          0
  pseudo solutions :       0.00          -          -          0          0
  strong branching :       0.00          -          -          0          0
  actconsdiving    :       0.00       0.00          0          0          0
  adaptivediving   :       2.89       0.00      68255          0          0
  alns             :       0.48       0.00         46          0          0
  bound            :       0.00       0.00          0          0          0
  clique           :       0.00       0.00          0          0          0
  coefdiving       :       0.00       0.00          0          0          0
  completesol      :       0.00       0.00          0          0          0
  conflictdiving   :       0.06       0.00          0          0          0
  crossover        :       0.13       0.00          0          0          0
  dins             :       0.00       0.00          0          0          0
  distributiondivin:       0.03       0.00          0          0          0
  dps              :       0.00       0.00          0          0          0
  dualval          :       0.00       0.00          0          0          0
  farkasdiving     :       0.05       0.00          0          0          0
  feaspump         :       0.04       0.00          0          0          0
  fixandinfer      :       0.00       0.00          0          0          0
  fracdiving       :       1.69       0.00      95982          0          0
  gins             :       0.05       0.00          0          0          0
  guideddiving     :       0.03       0.00          0          0          0
  indicator        :       1.34       0.00          0          0          0
  indicatordiving  :       0.00       0.00          0          0          0
  intdiving        :       0.00       0.00          0          0          0
  intshifting      :       0.04       0.00          0          0          0
  linesearchdiving :       2.27       0.00      95972          0          0
  localbranching   :       0.00       0.00          0          0          0
  locks            :       0.00       0.00          0          0          0
  lpface           :       0.55       0.00          0          0          0
  mpec             :       0.03       0.00          0          0          0
  multistart       :       0.52       0.00          1          2          2
  mutation         :       0.00       0.00          0          0          0
  nlpdiving        :       0.07       0.00          0          0          0
  objpscostdiving  :       0.03       0.00          0          0          0
  octane           :       0.00       0.00          0          0          0
  ofins            :       0.36       0.00          0          0          0
  oneopt           :       0.64       0.00          0          0          0
  padm             :       0.00       0.00          0          0          0
  proximity        :       0.00       0.00          0          0          0
  pscostdiving     :       0.03       0.00          0          0          0
  randrounding     :       0.11       0.00          0          0          0
  rens             :       0.54       0.00          0          0          0
  reoptsols        :       0.00       0.00          0          0          0
  repair           :       0.00       0.00          0          0          0
  rins             :       0.04       0.00          0          0          0
  rootsoldiving    :       0.04       0.00          0          0          0
  rounding         :       1.85       0.00          0          0          0
  shiftandpropagate:       0.00       0.00          0          0          0
  shifting         :       0.20       0.00          0          0          0
  simplerounding   :       1.55       0.00          0          0          0
  subnlp           :     145.17       0.00        746        225          9
  trivial          :       0.00       0.00          2          0          0
  trivialnegation  :       0.00       0.00          0          0          0
  trustregion      :       0.00       0.00          0          0          0
  trysol           :       0.99       0.00          0          0          0
  twoopt           :       0.00       0.00          0          0          0
  undercover       :       0.34       0.00          1          1          1
  vbounds          :       0.00       0.00          0          0          0
  veclendiving     :       0.02       0.00          0          0          0
  zeroobj          :       0.00       0.00          0          0          0
  zirounding       :       0.56       0.00          0          0          0
  other solutions  :          -          -          -          0          -
Expressions        :   #IntEval  IntEvalTi   #RevProp  RevPropTi    DomReds    Cutoffs  #Estimate  EstimTime  Branching  #Simplify SimplifyTi Simplified
  exp              :   20183665       2.18        481       0.00          0          0          0       0.00          0         48       0.00          0
  pow              :   37166864       5.75   10166257       2.75       8066          0   87300137      15.20   29685886         64       0.00         16
  prod             :    7122969       1.85      14171       0.01        597          0   79879135       6.47   34099246         88       0.00         64
  sum              :   24880917       8.85    4694802       7.96    1012059          0          9       0.00          0         91       0.00         25
  val              :          0       0.00          0       0.00          0          0          0       0.00          0          0       0.00          0
  var              :    3511510       0.52          0       0.00          0          0          0       0.00          0        154       0.00          0
Nlhdlrs            :    Detects  DetectAll DetectTime   #IntEval  IntEvalTi   #RevProp  RevPropTi    DomReds    Cutoffs   #Enforce   EnfoTime       Cuts  Branching
  soc              :          0          0       0.00          0       0.00          0       0.00          0          0          0       0.00          0          0
  convex           :         24         24       0.00          0       0.00          0       0.00          0          0    1281856       1.48    1281832          0
  concave          :         24         24       0.00          0       0.00          0       0.00          0          0  140692358     147.33      30810          0
  signomial        :          0          0       0.00          0       0.00          0       0.00          0          0          0       0.00          0          0
  quotient         :          0          0       0.00          0       0.00          0       0.00          0          0          0       0.00          0          0
  quadratic        :          0          0       0.00          0       0.00          0       0.00          0          0          0       0.00          0          0
  default          :        112        896       0.00   89353744      24.50   14875771      19.65    1020722        233  167179257     171.52    8144840          0
  bilinear         :         24         24       0.00    7122441       1.69      14099       0.01          0          0   79780395       7.85        638          0
  perspective      :          0          0       0.00          0       0.00          0       0.00          0          0          0       0.00          0          0
LP                 :       Time      Calls Iterations  Iter/call   Iter/sec  Time-0-It Calls-0-It    ItLimit
  primal LP        :     347.19    1533694         49      49.00       0.14     347.06    1533693
  dual LP          :    1482.87    8549950    7638873       1.20    5151.41     310.32    2203348
  lex dual LP      :       0.00          0          0       0.00          -
  barrier LP       :       0.00          0          0       0.00          -       0.00          0
  resolve instable :       0.00          0          0       0.00          -
  diving/probing LP:       0.09         88       4384      49.82   50840.19
  strong branching :       0.00          0          0       0.00          -          -          -          0
    (at root node) :          -          0          0       0.00          -
  conflict analysis:       0.00          0          0       0.00          -
NLP relaxation     :
  solve time       :       0.00 (0 calls)
  convexity        :  nonconvex (3 linear rows, 0 convex ineq., 1 nonconvex ineq., 8 nonlinear eq. or two-sided ineq.)
NLP Solvers        :  #Problems  ProblemTi    #Solves  SolveTime      #Iter  Time/Iter      #Okay #TimeLimit #IterLimit #LObjLimit #Interrupt  #NumError #EvalError  #OutOfMem #LicenseEr #OtherTerm   #GlobOpt    #LocOpt  #Feasible #LocInfeas #GlobInfea #Unbounded   #Unknown
  ipopt            :          2       0.00        750     145.02     171988       0.00        500          0        249          0          0          1          0          0          0          0          0        331         33        147          0          0        239
B&B Tree           :
  number of runs   :          1
  nodes            :    1895530 (1892521 internal, 3009 leaves)
  feasible leaves  :          0
  infeas. leaves   :       3008
  objective leaves :          0
  nodes (total)    :    1895530 (1892521 internal, 3009 leaves)
  nodes left       :    1889514
  max depth        :        178
  max depth (total):        178
  backtracks       :      96307 (5.1%)
  early backtracks :          0 (0.0%)
  nodes exc. ref.  :          0 (0.0%)
  delayed cutoffs  :          0
  repropagations   :          9 (0 domain reductions, 0 cutoffs)
  avg switch length:       7.34
  switching time   :     394.66
Root Node          :
  First LP value   : -4.72439999084138e+09
  First LP Iters   :         16 (10921.50 Iter/sec)
  First LP Time    :       0.00
  Final Dual Bound : -4.72439999084138e+09
  Final Root Iters :        346
  Root LP Estimate : -4.72439999084138e+09
Solution           :
  Solutions found  :        228 (12 improvements)
  First Solution   : +4.43421880000096e+00   (in run 1, after 1 nodes, 0.04 seconds, depth 0, found by <undercover>)
  Gap First Sol.   :   infinite
  Gap Last Sol.    :   infinite
  Primal Bound     : +1.10489890156534e-03   (in run 1, after 812331 nodes, 1491.10 seconds, depth 101, found by <adaptivediving>)
  Dual Bound       : -3.07157716969221e+09
  Gap              :   infinite
Integrals          :      Total       Avg%
  primal-dual      :  360005.09     100.00
  primal-ref       :          -          - (not evaluated)
  dual-ref         :          -          - (not evaluated)
